c *********************************
c * Circuit generated by BenCGen
c *
c * Parity_429
c *
c * Ports with 1 gate(s): 1
c * Ports with 2 gate(s): 429
c * Total gates: 430
c *********************************
p cnf 859 1717
1 432 0
-1 -432 0
1 -431 0
432 -431 0
-1 -432 431 0
1 2 -433 0
-1 2 433 0
1 -2 433 0
-1 -2 -433 0
3 4 -434 0
-3 4 434 0
3 -4 434 0
-3 -4 -434 0
5 6 -435 0
-5 6 435 0
5 -6 435 0
-5 -6 -435 0
7 8 -436 0
-7 8 436 0
7 -8 436 0
-7 -8 -436 0
9 10 -437 0
-9 10 437 0
9 -10 437 0
-9 -10 -437 0
11 12 -438 0
-11 12 438 0
11 -12 438 0
-11 -12 -438 0
13 14 -439 0
-13 14 439 0
13 -14 439 0
-13 -14 -439 0
15 16 -440 0
-15 16 440 0
15 -16 440 0
-15 -16 -440 0
17 18 -441 0
-17 18 441 0
17 -18 441 0
-17 -18 -441 0
19 20 -442 0
-19 20 442 0
19 -20 442 0
-19 -20 -442 0
21 22 -443 0
-21 22 443 0
21 -22 443 0
-21 -22 -443 0
23 24 -444 0
-23 24 444 0
23 -24 444 0
-23 -24 -444 0
25 26 -445 0
-25 26 445 0
25 -26 445 0
-25 -26 -445 0
27 28 -446 0
-27 28 446 0
27 -28 446 0
-27 -28 -446 0
29 30 -447 0
-29 30 447 0
29 -30 447 0
-29 -30 -447 0
31 32 -448 0
-31 32 448 0
31 -32 448 0
-31 -32 -448 0
33 34 -449 0
-33 34 449 0
33 -34 449 0
-33 -34 -449 0
35 36 -450 0
-35 36 450 0
35 -36 450 0
-35 -36 -450 0
37 38 -451 0
-37 38 451 0
37 -38 451 0
-37 -38 -451 0
39 40 -452 0
-39 40 452 0
39 -40 452 0
-39 -40 -452 0
41 42 -453 0
-41 42 453 0
41 -42 453 0
-41 -42 -453 0
43 44 -454 0
-43 44 454 0
43 -44 454 0
-43 -44 -454 0
45 46 -455 0
-45 46 455 0
45 -46 455 0
-45 -46 -455 0
47 48 -456 0
-47 48 456 0
47 -48 456 0
-47 -48 -456 0
49 50 -457 0
-49 50 457 0
49 -50 457 0
-49 -50 -457 0
51 52 -458 0
-51 52 458 0
51 -52 458 0
-51 -52 -458 0
53 54 -459 0
-53 54 459 0
53 -54 459 0
-53 -54 -459 0
55 56 -460 0
-55 56 460 0
55 -56 460 0
-55 -56 -460 0
57 58 -461 0
-57 58 461 0
57 -58 461 0
-57 -58 -461 0
59 60 -462 0
-59 60 462 0
59 -60 462 0
-59 -60 -462 0
61 62 -463 0
-61 62 463 0
61 -62 463 0
-61 -62 -463 0
63 64 -464 0
-63 64 464 0
63 -64 464 0
-63 -64 -464 0
65 66 -465 0
-65 66 465 0
65 -66 465 0
-65 -66 -465 0
67 68 -466 0
-67 68 466 0
67 -68 466 0
-67 -68 -466 0
69 70 -467 0
-69 70 467 0
69 -70 467 0
-69 -70 -467 0
71 72 -468 0
-71 72 468 0
71 -72 468 0
-71 -72 -468 0
73 74 -469 0
-73 74 469 0
73 -74 469 0
-73 -74 -469 0
75 76 -470 0
-75 76 470 0
75 -76 470 0
-75 -76 -470 0
77 78 -471 0
-77 78 471 0
77 -78 471 0
-77 -78 -471 0
79 80 -472 0
-79 80 472 0
79 -80 472 0
-79 -80 -472 0
81 82 -473 0
-81 82 473 0
81 -82 473 0
-81 -82 -473 0
83 84 -474 0
-83 84 474 0
83 -84 474 0
-83 -84 -474 0
85 86 -475 0
-85 86 475 0
85 -86 475 0
-85 -86 -475 0
87 88 -476 0
-87 88 476 0
87 -88 476 0
-87 -88 -476 0
89 90 -477 0
-89 90 477 0
89 -90 477 0
-89 -90 -477 0
91 92 -478 0
-91 92 478 0
91 -92 478 0
-91 -92 -478 0
93 94 -479 0
-93 94 479 0
93 -94 479 0
-93 -94 -479 0
95 96 -480 0
-95 96 480 0
95 -96 480 0
-95 -96 -480 0
97 98 -481 0
-97 98 481 0
97 -98 481 0
-97 -98 -481 0
99 100 -482 0
-99 100 482 0
99 -100 482 0
-99 -100 -482 0
101 102 -483 0
-101 102 483 0
101 -102 483 0
-101 -102 -483 0
103 104 -484 0
-103 104 484 0
103 -104 484 0
-103 -104 -484 0
105 106 -485 0
-105 106 485 0
105 -106 485 0
-105 -106 -485 0
107 108 -486 0
-107 108 486 0
107 -108 486 0
-107 -108 -486 0
109 110 -487 0
-109 110 487 0
109 -110 487 0
-109 -110 -487 0
111 112 -488 0
-111 112 488 0
111 -112 488 0
-111 -112 -488 0
113 114 -489 0
-113 114 489 0
113 -114 489 0
-113 -114 -489 0
115 116 -490 0
-115 116 490 0
115 -116 490 0
-115 -116 -490 0
117 118 -491 0
-117 118 491 0
117 -118 491 0
-117 -118 -491 0
119 120 -492 0
-119 120 492 0
119 -120 492 0
-119 -120 -492 0
121 122 -493 0
-121 122 493 0
121 -122 493 0
-121 -122 -493 0
123 124 -494 0
-123 124 494 0
123 -124 494 0
-123 -124 -494 0
125 126 -495 0
-125 126 495 0
125 -126 495 0
-125 -126 -495 0
127 128 -496 0
-127 128 496 0
127 -128 496 0
-127 -128 -496 0
129 130 -497 0
-129 130 497 0
129 -130 497 0
-129 -130 -497 0
131 132 -498 0
-131 132 498 0
131 -132 498 0
-131 -132 -498 0
133 134 -499 0
-133 134 499 0
133 -134 499 0
-133 -134 -499 0
135 136 -500 0
-135 136 500 0
135 -136 500 0
-135 -136 -500 0
137 138 -501 0
-137 138 501 0
137 -138 501 0
-137 -138 -501 0
139 140 -502 0
-139 140 502 0
139 -140 502 0
-139 -140 -502 0
141 142 -503 0
-141 142 503 0
141 -142 503 0
-141 -142 -503 0
143 144 -504 0
-143 144 504 0
143 -144 504 0
-143 -144 -504 0
145 146 -505 0
-145 146 505 0
145 -146 505 0
-145 -146 -505 0
147 148 -506 0
-147 148 506 0
147 -148 506 0
-147 -148 -506 0
149 150 -507 0
-149 150 507 0
149 -150 507 0
-149 -150 -507 0
151 152 -508 0
-151 152 508 0
151 -152 508 0
-151 -152 -508 0
153 154 -509 0
-153 154 509 0
153 -154 509 0
-153 -154 -509 0
155 156 -510 0
-155 156 510 0
155 -156 510 0
-155 -156 -510 0
157 158 -511 0
-157 158 511 0
157 -158 511 0
-157 -158 -511 0
159 160 -512 0
-159 160 512 0
159 -160 512 0
-159 -160 -512 0
161 162 -513 0
-161 162 513 0
161 -162 513 0
-161 -162 -513 0
163 164 -514 0
-163 164 514 0
163 -164 514 0
-163 -164 -514 0
165 166 -515 0
-165 166 515 0
165 -166 515 0
-165 -166 -515 0
167 168 -516 0
-167 168 516 0
167 -168 516 0
-167 -168 -516 0
169 170 -517 0
-169 170 517 0
169 -170 517 0
-169 -170 -517 0
171 172 -518 0
-171 172 518 0
171 -172 518 0
-171 -172 -518 0
173 174 -519 0
-173 174 519 0
173 -174 519 0
-173 -174 -519 0
175 176 -520 0
-175 176 520 0
175 -176 520 0
-175 -176 -520 0
177 178 -521 0
-177 178 521 0
177 -178 521 0
-177 -178 -521 0
179 180 -522 0
-179 180 522 0
179 -180 522 0
-179 -180 -522 0
181 182 -523 0
-181 182 523 0
181 -182 523 0
-181 -182 -523 0
183 184 -524 0
-183 184 524 0
183 -184 524 0
-183 -184 -524 0
185 186 -525 0
-185 186 525 0
185 -186 525 0
-185 -186 -525 0
187 188 -526 0
-187 188 526 0
187 -188 526 0
-187 -188 -526 0
189 190 -527 0
-189 190 527 0
189 -190 527 0
-189 -190 -527 0
191 192 -528 0
-191 192 528 0
191 -192 528 0
-191 -192 -528 0
193 194 -529 0
-193 194 529 0
193 -194 529 0
-193 -194 -529 0
195 196 -530 0
-195 196 530 0
195 -196 530 0
-195 -196 -530 0
197 198 -531 0
-197 198 531 0
197 -198 531 0
-197 -198 -531 0
199 200 -532 0
-199 200 532 0
199 -200 532 0
-199 -200 -532 0
201 202 -533 0
-201 202 533 0
201 -202 533 0
-201 -202 -533 0
203 204 -534 0
-203 204 534 0
203 -204 534 0
-203 -204 -534 0
205 206 -535 0
-205 206 535 0
205 -206 535 0
-205 -206 -535 0
207 208 -536 0
-207 208 536 0
207 -208 536 0
-207 -208 -536 0
209 210 -537 0
-209 210 537 0
209 -210 537 0
-209 -210 -537 0
211 212 -538 0
-211 212 538 0
211 -212 538 0
-211 -212 -538 0
213 214 -539 0
-213 214 539 0
213 -214 539 0
-213 -214 -539 0
215 216 -540 0
-215 216 540 0
215 -216 540 0
-215 -216 -540 0
217 218 -541 0
-217 218 541 0
217 -218 541 0
-217 -218 -541 0
219 220 -542 0
-219 220 542 0
219 -220 542 0
-219 -220 -542 0
221 222 -543 0
-221 222 543 0
221 -222 543 0
-221 -222 -543 0
223 224 -544 0
-223 224 544 0
223 -224 544 0
-223 -224 -544 0
225 226 -545 0
-225 226 545 0
225 -226 545 0
-225 -226 -545 0
227 228 -546 0
-227 228 546 0
227 -228 546 0
-227 -228 -546 0
229 230 -547 0
-229 230 547 0
229 -230 547 0
-229 -230 -547 0
231 232 -548 0
-231 232 548 0
231 -232 548 0
-231 -232 -548 0
233 234 -549 0
-233 234 549 0
233 -234 549 0
-233 -234 -549 0
235 236 -550 0
-235 236 550 0
235 -236 550 0
-235 -236 -550 0
237 238 -551 0
-237 238 551 0
237 -238 551 0
-237 -238 -551 0
239 240 -552 0
-239 240 552 0
239 -240 552 0
-239 -240 -552 0
241 242 -553 0
-241 242 553 0
241 -242 553 0
-241 -242 -553 0
243 244 -554 0
-243 244 554 0
243 -244 554 0
-243 -244 -554 0
245 246 -555 0
-245 246 555 0
245 -246 555 0
-245 -246 -555 0
247 248 -556 0
-247 248 556 0
247 -248 556 0
-247 -248 -556 0
249 250 -557 0
-249 250 557 0
249 -250 557 0
-249 -250 -557 0
251 252 -558 0
-251 252 558 0
251 -252 558 0
-251 -252 -558 0
253 254 -559 0
-253 254 559 0
253 -254 559 0
-253 -254 -559 0
255 256 -560 0
-255 256 560 0
255 -256 560 0
-255 -256 -560 0
257 258 -561 0
-257 258 561 0
257 -258 561 0
-257 -258 -561 0
259 260 -562 0
-259 260 562 0
259 -260 562 0
-259 -260 -562 0
261 262 -563 0
-261 262 563 0
261 -262 563 0
-261 -262 -563 0
263 264 -564 0
-263 264 564 0
263 -264 564 0
-263 -264 -564 0
265 266 -565 0
-265 266 565 0
265 -266 565 0
-265 -266 -565 0
267 268 -566 0
-267 268 566 0
267 -268 566 0
-267 -268 -566 0
269 270 -567 0
-269 270 567 0
269 -270 567 0
-269 -270 -567 0
271 272 -568 0
-271 272 568 0
271 -272 568 0
-271 -272 -568 0
273 274 -569 0
-273 274 569 0
273 -274 569 0
-273 -274 -569 0
275 276 -570 0
-275 276 570 0
275 -276 570 0
-275 -276 -570 0
277 278 -571 0
-277 278 571 0
277 -278 571 0
-277 -278 -571 0
279 280 -572 0
-279 280 572 0
279 -280 572 0
-279 -280 -572 0
281 282 -573 0
-281 282 573 0
281 -282 573 0
-281 -282 -573 0
283 284 -574 0
-283 284 574 0
283 -284 574 0
-283 -284 -574 0
285 286 -575 0
-285 286 575 0
285 -286 575 0
-285 -286 -575 0
287 288 -576 0
-287 288 576 0
287 -288 576 0
-287 -288 -576 0
289 290 -577 0
-289 290 577 0
289 -290 577 0
-289 -290 -577 0
291 292 -578 0
-291 292 578 0
291 -292 578 0
-291 -292 -578 0
293 294 -579 0
-293 294 579 0
293 -294 579 0
-293 -294 -579 0
295 296 -580 0
-295 296 580 0
295 -296 580 0
-295 -296 -580 0
297 298 -581 0
-297 298 581 0
297 -298 581 0
-297 -298 -581 0
299 300 -582 0
-299 300 582 0
299 -300 582 0
-299 -300 -582 0
301 302 -583 0
-301 302 583 0
301 -302 583 0
-301 -302 -583 0
303 304 -584 0
-303 304 584 0
303 -304 584 0
-303 -304 -584 0
305 306 -585 0
-305 306 585 0
305 -306 585 0
-305 -306 -585 0
307 308 -586 0
-307 308 586 0
307 -308 586 0
-307 -308 -586 0
309 310 -587 0
-309 310 587 0
309 -310 587 0
-309 -310 -587 0
311 312 -588 0
-311 312 588 0
311 -312 588 0
-311 -312 -588 0
313 314 -589 0
-313 314 589 0
313 -314 589 0
-313 -314 -589 0
315 316 -590 0
-315 316 590 0
315 -316 590 0
-315 -316 -590 0
317 318 -591 0
-317 318 591 0
317 -318 591 0
-317 -318 -591 0
319 320 -592 0
-319 320 592 0
319 -320 592 0
-319 -320 -592 0
321 322 -593 0
-321 322 593 0
321 -322 593 0
-321 -322 -593 0
323 324 -594 0
-323 324 594 0
323 -324 594 0
-323 -324 -594 0
325 326 -595 0
-325 326 595 0
325 -326 595 0
-325 -326 -595 0
327 328 -596 0
-327 328 596 0
327 -328 596 0
-327 -328 -596 0
329 330 -597 0
-329 330 597 0
329 -330 597 0
-329 -330 -597 0
331 332 -598 0
-331 332 598 0
331 -332 598 0
-331 -332 -598 0
333 334 -599 0
-333 334 599 0
333 -334 599 0
-333 -334 -599 0
335 336 -600 0
-335 336 600 0
335 -336 600 0
-335 -336 -600 0
337 338 -601 0
-337 338 601 0
337 -338 601 0
-337 -338 -601 0
339 340 -602 0
-339 340 602 0
339 -340 602 0
-339 -340 -602 0
341 342 -603 0
-341 342 603 0
341 -342 603 0
-341 -342 -603 0
343 344 -604 0
-343 344 604 0
343 -344 604 0
-343 -344 -604 0
345 346 -605 0
-345 346 605 0
345 -346 605 0
-345 -346 -605 0
347 348 -606 0
-347 348 606 0
347 -348 606 0
-347 -348 -606 0
349 350 -607 0
-349 350 607 0
349 -350 607 0
-349 -350 -607 0
351 352 -608 0
-351 352 608 0
351 -352 608 0
-351 -352 -608 0
353 354 -609 0
-353 354 609 0
353 -354 609 0
-353 -354 -609 0
355 356 -610 0
-355 356 610 0
355 -356 610 0
-355 -356 -610 0
357 358 -611 0
-357 358 611 0
357 -358 611 0
-357 -358 -611 0
359 360 -612 0
-359 360 612 0
359 -360 612 0
-359 -360 -612 0
361 362 -613 0
-361 362 613 0
361 -362 613 0
-361 -362 -613 0
363 364 -614 0
-363 364 614 0
363 -364 614 0
-363 -364 -614 0
365 366 -615 0
-365 366 615 0
365 -366 615 0
-365 -366 -615 0
367 368 -616 0
-367 368 616 0
367 -368 616 0
-367 -368 -616 0
369 370 -617 0
-369 370 617 0
369 -370 617 0
-369 -370 -617 0
371 372 -618 0
-371 372 618 0
371 -372 618 0
-371 -372 -618 0
373 374 -619 0
-373 374 619 0
373 -374 619 0
-373 -374 -619 0
375 376 -620 0
-375 376 620 0
375 -376 620 0
-375 -376 -620 0
377 378 -621 0
-377 378 621 0
377 -378 621 0
-377 -378 -621 0
379 380 -622 0
-379 380 622 0
379 -380 622 0
-379 -380 -622 0
381 382 -623 0
-381 382 623 0
381 -382 623 0
-381 -382 -623 0
383 384 -624 0
-383 384 624 0
383 -384 624 0
-383 -384 -624 0
385 386 -625 0
-385 386 625 0
385 -386 625 0
-385 -386 -625 0
387 388 -626 0
-387 388 626 0
387 -388 626 0
-387 -388 -626 0
389 390 -627 0
-389 390 627 0
389 -390 627 0
-389 -390 -627 0
391 392 -628 0
-391 392 628 0
391 -392 628 0
-391 -392 -628 0
393 394 -629 0
-393 394 629 0
393 -394 629 0
-393 -394 -629 0
395 396 -630 0
-395 396 630 0
395 -396 630 0
-395 -396 -630 0
397 398 -631 0
-397 398 631 0
397 -398 631 0
-397 -398 -631 0
399 400 -632 0
-399 400 632 0
399 -400 632 0
-399 -400 -632 0
401 402 -633 0
-401 402 633 0
401 -402 633 0
-401 -402 -633 0
403 404 -634 0
-403 404 634 0
403 -404 634 0
-403 -404 -634 0
405 406 -635 0
-405 406 635 0
405 -406 635 0
-405 -406 -635 0
407 408 -636 0
-407 408 636 0
407 -408 636 0
-407 -408 -636 0
409 410 -637 0
-409 410 637 0
409 -410 637 0
-409 -410 -637 0
411 412 -638 0
-411 412 638 0
411 -412 638 0
-411 -412 -638 0
413 414 -639 0
-413 414 639 0
413 -414 639 0
-413 -414 -639 0
415 416 -640 0
-415 416 640 0
415 -416 640 0
-415 -416 -640 0
417 418 -641 0
-417 418 641 0
417 -418 641 0
-417 -418 -641 0
419 420 -642 0
-419 420 642 0
419 -420 642 0
-419 -420 -642 0
421 422 -643 0
-421 422 643 0
421 -422 643 0
-421 -422 -643 0
423 424 -644 0
-423 424 644 0
423 -424 644 0
-423 -424 -644 0
425 426 -645 0
-425 426 645 0
425 -426 645 0
-425 -426 -645 0
427 428 -646 0
-427 428 646 0
427 -428 646 0
-427 -428 -646 0
433 434 -647 0
-433 434 647 0
433 -434 647 0
-433 -434 -647 0
435 436 -648 0
-435 436 648 0
435 -436 648 0
-435 -436 -648 0
437 438 -649 0
-437 438 649 0
437 -438 649 0
-437 -438 -649 0
439 440 -650 0
-439 440 650 0
439 -440 650 0
-439 -440 -650 0
441 442 -651 0
-441 442 651 0
441 -442 651 0
-441 -442 -651 0
443 444 -652 0
-443 444 652 0
443 -444 652 0
-443 -444 -652 0
445 446 -653 0
-445 446 653 0
445 -446 653 0
-445 -446 -653 0
447 448 -654 0
-447 448 654 0
447 -448 654 0
-447 -448 -654 0
449 450 -655 0
-449 450 655 0
449 -450 655 0
-449 -450 -655 0
451 452 -656 0
-451 452 656 0
451 -452 656 0
-451 -452 -656 0
453 454 -657 0
-453 454 657 0
453 -454 657 0
-453 -454 -657 0
455 456 -658 0
-455 456 658 0
455 -456 658 0
-455 -456 -658 0
457 458 -659 0
-457 458 659 0
457 -458 659 0
-457 -458 -659 0
459 460 -660 0
-459 460 660 0
459 -460 660 0
-459 -460 -660 0
461 462 -661 0
-461 462 661 0
461 -462 661 0
-461 -462 -661 0
463 464 -662 0
-463 464 662 0
463 -464 662 0
-463 -464 -662 0
465 466 -663 0
-465 466 663 0
465 -466 663 0
-465 -466 -663 0
467 468 -664 0
-467 468 664 0
467 -468 664 0
-467 -468 -664 0
469 470 -665 0
-469 470 665 0
469 -470 665 0
-469 -470 -665 0
471 472 -666 0
-471 472 666 0
471 -472 666 0
-471 -472 -666 0
473 474 -667 0
-473 474 667 0
473 -474 667 0
-473 -474 -667 0
475 476 -668 0
-475 476 668 0
475 -476 668 0
-475 -476 -668 0
477 478 -669 0
-477 478 669 0
477 -478 669 0
-477 -478 -669 0
479 480 -670 0
-479 480 670 0
479 -480 670 0
-479 -480 -670 0
481 482 -671 0
-481 482 671 0
481 -482 671 0
-481 -482 -671 0
483 484 -672 0
-483 484 672 0
483 -484 672 0
-483 -484 -672 0
485 486 -673 0
-485 486 673 0
485 -486 673 0
-485 -486 -673 0
487 488 -674 0
-487 488 674 0
487 -488 674 0
-487 -488 -674 0
489 490 -675 0
-489 490 675 0
489 -490 675 0
-489 -490 -675 0
491 492 -676 0
-491 492 676 0
491 -492 676 0
-491 -492 -676 0
493 494 -677 0
-493 494 677 0
493 -494 677 0
-493 -494 -677 0
495 496 -678 0
-495 496 678 0
495 -496 678 0
-495 -496 -678 0
497 498 -679 0
-497 498 679 0
497 -498 679 0
-497 -498 -679 0
499 500 -680 0
-499 500 680 0
499 -500 680 0
-499 -500 -680 0
501 502 -681 0
-501 502 681 0
501 -502 681 0
-501 -502 -681 0
503 504 -682 0
-503 504 682 0
503 -504 682 0
-503 -504 -682 0
505 506 -683 0
-505 506 683 0
505 -506 683 0
-505 -506 -683 0
507 508 -684 0
-507 508 684 0
507 -508 684 0
-507 -508 -684 0
509 510 -685 0
-509 510 685 0
509 -510 685 0
-509 -510 -685 0
511 512 -686 0
-511 512 686 0
511 -512 686 0
-511 -512 -686 0
513 514 -687 0
-513 514 687 0
513 -514 687 0
-513 -514 -687 0
515 516 -688 0
-515 516 688 0
515 -516 688 0
-515 -516 -688 0
517 518 -689 0
-517 518 689 0
517 -518 689 0
-517 -518 -689 0
519 520 -690 0
-519 520 690 0
519 -520 690 0
-519 -520 -690 0
521 522 -691 0
-521 522 691 0
521 -522 691 0
-521 -522 -691 0
523 524 -692 0
-523 524 692 0
523 -524 692 0
-523 -524 -692 0
525 526 -693 0
-525 526 693 0
525 -526 693 0
-525 -526 -693 0
527 528 -694 0
-527 528 694 0
527 -528 694 0
-527 -528 -694 0
529 530 -695 0
-529 530 695 0
529 -530 695 0
-529 -530 -695 0
531 532 -696 0
-531 532 696 0
531 -532 696 0
-531 -532 -696 0
533 534 -697 0
-533 534 697 0
533 -534 697 0
-533 -534 -697 0
535 536 -698 0
-535 536 698 0
535 -536 698 0
-535 -536 -698 0
537 538 -699 0
-537 538 699 0
537 -538 699 0
-537 -538 -699 0
539 540 -700 0
-539 540 700 0
539 -540 700 0
-539 -540 -700 0
541 542 -701 0
-541 542 701 0
541 -542 701 0
-541 -542 -701 0
543 544 -702 0
-543 544 702 0
543 -544 702 0
-543 -544 -702 0
545 546 -703 0
-545 546 703 0
545 -546 703 0
-545 -546 -703 0
547 548 -704 0
-547 548 704 0
547 -548 704 0
-547 -548 -704 0
549 550 -705 0
-549 550 705 0
549 -550 705 0
-549 -550 -705 0
551 552 -706 0
-551 552 706 0
551 -552 706 0
-551 -552 -706 0
553 554 -707 0
-553 554 707 0
553 -554 707 0
-553 -554 -707 0
555 556 -708 0
-555 556 708 0
555 -556 708 0
-555 -556 -708 0
557 558 -709 0
-557 558 709 0
557 -558 709 0
-557 -558 -709 0
559 560 -710 0
-559 560 710 0
559 -560 710 0
-559 -560 -710 0
561 562 -711 0
-561 562 711 0
561 -562 711 0
-561 -562 -711 0
563 564 -712 0
-563 564 712 0
563 -564 712 0
-563 -564 -712 0
565 566 -713 0
-565 566 713 0
565 -566 713 0
-565 -566 -713 0
567 568 -714 0
-567 568 714 0
567 -568 714 0
-567 -568 -714 0
569 570 -715 0
-569 570 715 0
569 -570 715 0
-569 -570 -715 0
571 572 -716 0
-571 572 716 0
571 -572 716 0
-571 -572 -716 0
573 574 -717 0
-573 574 717 0
573 -574 717 0
-573 -574 -717 0
575 576 -718 0
-575 576 718 0
575 -576 718 0
-575 -576 -718 0
577 578 -719 0
-577 578 719 0
577 -578 719 0
-577 -578 -719 0
579 580 -720 0
-579 580 720 0
579 -580 720 0
-579 -580 -720 0
581 582 -721 0
-581 582 721 0
581 -582 721 0
-581 -582 -721 0
583 584 -722 0
-583 584 722 0
583 -584 722 0
-583 -584 -722 0
585 586 -723 0
-585 586 723 0
585 -586 723 0
-585 -586 -723 0
587 588 -724 0
-587 588 724 0
587 -588 724 0
-587 -588 -724 0
589 590 -725 0
-589 590 725 0
589 -590 725 0
-589 -590 -725 0
591 592 -726 0
-591 592 726 0
591 -592 726 0
-591 -592 -726 0
593 594 -727 0
-593 594 727 0
593 -594 727 0
-593 -594 -727 0
595 596 -728 0
-595 596 728 0
595 -596 728 0
-595 -596 -728 0
597 598 -729 0
-597 598 729 0
597 -598 729 0
-597 -598 -729 0
599 600 -730 0
-599 600 730 0
599 -600 730 0
-599 -600 -730 0
601 602 -731 0
-601 602 731 0
601 -602 731 0
-601 -602 -731 0
603 604 -732 0
-603 604 732 0
603 -604 732 0
-603 -604 -732 0
605 606 -733 0
-605 606 733 0
605 -606 733 0
-605 -606 -733 0
607 608 -734 0
-607 608 734 0
607 -608 734 0
-607 -608 -734 0
609 610 -735 0
-609 610 735 0
609 -610 735 0
-609 -610 -735 0
611 612 -736 0
-611 612 736 0
611 -612 736 0
-611 -612 -736 0
613 614 -737 0
-613 614 737 0
613 -614 737 0
-613 -614 -737 0
615 616 -738 0
-615 616 738 0
615 -616 738 0
-615 -616 -738 0
617 618 -739 0
-617 618 739 0
617 -618 739 0
-617 -618 -739 0
619 620 -740 0
-619 620 740 0
619 -620 740 0
-619 -620 -740 0
621 622 -741 0
-621 622 741 0
621 -622 741 0
-621 -622 -741 0
623 624 -742 0
-623 624 742 0
623 -624 742 0
-623 -624 -742 0
625 626 -743 0
-625 626 743 0
625 -626 743 0
-625 -626 -743 0
627 628 -744 0
-627 628 744 0
627 -628 744 0
-627 -628 -744 0
629 630 -745 0
-629 630 745 0
629 -630 745 0
-629 -630 -745 0
631 632 -746 0
-631 632 746 0
631 -632 746 0
-631 -632 -746 0
633 634 -747 0
-633 634 747 0
633 -634 747 0
-633 -634 -747 0
635 636 -748 0
-635 636 748 0
635 -636 748 0
-635 -636 -748 0
637 638 -749 0
-637 638 749 0
637 -638 749 0
-637 -638 -749 0
639 640 -750 0
-639 640 750 0
639 -640 750 0
-639 -640 -750 0
641 642 -751 0
-641 642 751 0
641 -642 751 0
-641 -642 -751 0
643 644 -752 0
-643 644 752 0
643 -644 752 0
-643 -644 -752 0
645 646 -753 0
-645 646 753 0
645 -646 753 0
-645 -646 -753 0
647 648 -754 0
-647 648 754 0
647 -648 754 0
-647 -648 -754 0
649 650 -755 0
-649 650 755 0
649 -650 755 0
-649 -650 -755 0
651 652 -756 0
-651 652 756 0
651 -652 756 0
-651 -652 -756 0
653 654 -757 0
-653 654 757 0
653 -654 757 0
-653 -654 -757 0
655 656 -758 0
-655 656 758 0
655 -656 758 0
-655 -656 -758 0
657 658 -759 0
-657 658 759 0
657 -658 759 0
-657 -658 -759 0
659 660 -760 0
-659 660 760 0
659 -660 760 0
-659 -660 -760 0
661 662 -761 0
-661 662 761 0
661 -662 761 0
-661 -662 -761 0
663 664 -762 0
-663 664 762 0
663 -664 762 0
-663 -664 -762 0
665 666 -763 0
-665 666 763 0
665 -666 763 0
-665 -666 -763 0
667 668 -764 0
-667 668 764 0
667 -668 764 0
-667 -668 -764 0
669 670 -765 0
-669 670 765 0
669 -670 765 0
-669 -670 -765 0
671 672 -766 0
-671 672 766 0
671 -672 766 0
-671 -672 -766 0
673 674 -767 0
-673 674 767 0
673 -674 767 0
-673 -674 -767 0
675 676 -768 0
-675 676 768 0
675 -676 768 0
-675 -676 -768 0
677 678 -769 0
-677 678 769 0
677 -678 769 0
-677 -678 -769 0
679 680 -770 0
-679 680 770 0
679 -680 770 0
-679 -680 -770 0
681 682 -771 0
-681 682 771 0
681 -682 771 0
-681 -682 -771 0
683 684 -772 0
-683 684 772 0
683 -684 772 0
-683 -684 -772 0
685 686 -773 0
-685 686 773 0
685 -686 773 0
-685 -686 -773 0
687 688 -774 0
-687 688 774 0
687 -688 774 0
-687 -688 -774 0
689 690 -775 0
-689 690 775 0
689 -690 775 0
-689 -690 -775 0
691 692 -776 0
-691 692 776 0
691 -692 776 0
-691 -692 -776 0
693 694 -777 0
-693 694 777 0
693 -694 777 0
-693 -694 -777 0
695 696 -778 0
-695 696 778 0
695 -696 778 0
-695 -696 -778 0
697 698 -779 0
-697 698 779 0
697 -698 779 0
-697 -698 -779 0
699 700 -780 0
-699 700 780 0
699 -700 780 0
-699 -700 -780 0
701 702 -781 0
-701 702 781 0
701 -702 781 0
-701 -702 -781 0
703 704 -782 0
-703 704 782 0
703 -704 782 0
-703 -704 -782 0
705 706 -783 0
-705 706 783 0
705 -706 783 0
-705 -706 -783 0
707 708 -784 0
-707 708 784 0
707 -708 784 0
-707 -708 -784 0
709 710 -785 0
-709 710 785 0
709 -710 785 0
-709 -710 -785 0
711 712 -786 0
-711 712 786 0
711 -712 786 0
-711 -712 -786 0
713 714 -787 0
-713 714 787 0
713 -714 787 0
-713 -714 -787 0
715 716 -788 0
-715 716 788 0
715 -716 788 0
-715 -716 -788 0
717 718 -789 0
-717 718 789 0
717 -718 789 0
-717 -718 -789 0
719 720 -790 0
-719 720 790 0
719 -720 790 0
-719 -720 -790 0
721 722 -791 0
-721 722 791 0
721 -722 791 0
-721 -722 -791 0
723 724 -792 0
-723 724 792 0
723 -724 792 0
-723 -724 -792 0
725 726 -793 0
-725 726 793 0
725 -726 793 0
-725 -726 -793 0
727 728 -794 0
-727 728 794 0
727 -728 794 0
-727 -728 -794 0
729 730 -795 0
-729 730 795 0
729 -730 795 0
-729 -730 -795 0
731 732 -796 0
-731 732 796 0
731 -732 796 0
-731 -732 -796 0
733 734 -797 0
-733 734 797 0
733 -734 797 0
-733 -734 -797 0
735 736 -798 0
-735 736 798 0
735 -736 798 0
-735 -736 -798 0
737 738 -799 0
-737 738 799 0
737 -738 799 0
-737 -738 -799 0
739 740 -800 0
-739 740 800 0
739 -740 800 0
-739 -740 -800 0
741 742 -801 0
-741 742 801 0
741 -742 801 0
-741 -742 -801 0
743 744 -802 0
-743 744 802 0
743 -744 802 0
-743 -744 -802 0
745 746 -803 0
-745 746 803 0
745 -746 803 0
-745 -746 -803 0
747 748 -804 0
-747 748 804 0
747 -748 804 0
-747 -748 -804 0
749 750 -805 0
-749 750 805 0
749 -750 805 0
-749 -750 -805 0
751 752 -806 0
-751 752 806 0
751 -752 806 0
-751 -752 -806 0
753 429 -807 0
-753 429 807 0
753 -429 807 0
-753 -429 -807 0
754 755 -808 0
-754 755 808 0
754 -755 808 0
-754 -755 -808 0
756 757 -809 0
-756 757 809 0
756 -757 809 0
-756 -757 -809 0
758 759 -810 0
-758 759 810 0
758 -759 810 0
-758 -759 -810 0
760 761 -811 0
-760 761 811 0
760 -761 811 0
-760 -761 -811 0
762 763 -812 0
-762 763 812 0
762 -763 812 0
-762 -763 -812 0
764 765 -813 0
-764 765 813 0
764 -765 813 0
-764 -765 -813 0
766 767 -814 0
-766 767 814 0
766 -767 814 0
-766 -767 -814 0
768 769 -815 0
-768 769 815 0
768 -769 815 0
-768 -769 -815 0
770 771 -816 0
-770 771 816 0
770 -771 816 0
-770 -771 -816 0
772 773 -817 0
-772 773 817 0
772 -773 817 0
-772 -773 -817 0
774 775 -818 0
-774 775 818 0
774 -775 818 0
-774 -775 -818 0
776 777 -819 0
-776 777 819 0
776 -777 819 0
-776 -777 -819 0
778 779 -820 0
-778 779 820 0
778 -779 820 0
-778 -779 -820 0
780 781 -821 0
-780 781 821 0
780 -781 821 0
-780 -781 -821 0
782 783 -822 0
-782 783 822 0
782 -783 822 0
-782 -783 -822 0
784 785 -823 0
-784 785 823 0
784 -785 823 0
-784 -785 -823 0
786 787 -824 0
-786 787 824 0
786 -787 824 0
-786 -787 -824 0
788 789 -825 0
-788 789 825 0
788 -789 825 0
-788 -789 -825 0
790 791 -826 0
-790 791 826 0
790 -791 826 0
-790 -791 -826 0
792 793 -827 0
-792 793 827 0
792 -793 827 0
-792 -793 -827 0
794 795 -828 0
-794 795 828 0
794 -795 828 0
-794 -795 -828 0
796 797 -829 0
-796 797 829 0
796 -797 829 0
-796 -797 -829 0
798 799 -830 0
-798 799 830 0
798 -799 830 0
-798 -799 -830 0
800 801 -831 0
-800 801 831 0
800 -801 831 0
-800 -801 -831 0
802 803 -832 0
-802 803 832 0
802 -803 832 0
-802 -803 -832 0
804 805 -833 0
-804 805 833 0
804 -805 833 0
-804 -805 -833 0
806 807 -834 0
-806 807 834 0
806 -807 834 0
-806 -807 -834 0
808 809 -835 0
-808 809 835 0
808 -809 835 0
-808 -809 -835 0
810 811 -836 0
-810 811 836 0
810 -811 836 0
-810 -811 -836 0
812 813 -837 0
-812 813 837 0
812 -813 837 0
-812 -813 -837 0
814 815 -838 0
-814 815 838 0
814 -815 838 0
-814 -815 -838 0
816 817 -839 0
-816 817 839 0
816 -817 839 0
-816 -817 -839 0
818 819 -840 0
-818 819 840 0
818 -819 840 0
-818 -819 -840 0
820 821 -841 0
-820 821 841 0
820 -821 841 0
-820 -821 -841 0
822 823 -842 0
-822 823 842 0
822 -823 842 0
-822 -823 -842 0
824 825 -843 0
-824 825 843 0
824 -825 843 0
-824 -825 -843 0
826 827 -844 0
-826 827 844 0
826 -827 844 0
-826 -827 -844 0
828 829 -845 0
-828 829 845 0
828 -829 845 0
-828 -829 -845 0
830 831 -846 0
-830 831 846 0
830 -831 846 0
-830 -831 -846 0
832 833 -847 0
-832 833 847 0
832 -833 847 0
-832 -833 -847 0
835 836 -848 0
-835 836 848 0
835 -836 848 0
-835 -836 -848 0
837 838 -849 0
-837 838 849 0
837 -838 849 0
-837 -838 -849 0
839 840 -850 0
-839 840 850 0
839 -840 850 0
-839 -840 -850 0
841 842 -851 0
-841 842 851 0
841 -842 851 0
-841 -842 -851 0
843 844 -852 0
-843 844 852 0
843 -844 852 0
-843 -844 -852 0
845 846 -853 0
-845 846 853 0
845 -846 853 0
-845 -846 -853 0
847 834 -854 0
-847 834 854 0
847 -834 854 0
-847 -834 -854 0
848 849 -855 0
-848 849 855 0
848 -849 855 0
-848 -849 -855 0
850 851 -856 0
-850 851 856 0
850 -851 856 0
-850 -851 -856 0
852 853 -857 0
-852 853 857 0
852 -853 857 0
-852 -853 -857 0
855 856 -858 0
-855 856 858 0
855 -856 858 0
-855 -856 -858 0
857 854 -859 0
-857 854 859 0
857 -854 859 0
-857 -854 -859 0
858 859 -430 0
-858 859 430 0
858 -859 430 0
-858 -859 -430 0
